(declare-const x1 Int)
(declare-const phi_y1 Int)
(declare-const term_to_project_onto0 Real)
(declare-const y3 Int)
(declare-const y1 Int)
(declare-const uninterp Int)
(declare-const term_to_project_onto1 Real)
(declare-const |y2'| Int)
(declare-const |y3'| Int)
(declare-const |y1'| Int)
(declare-const term_to_project_onto Real)
(declare-const phi_y2 Int)
(declare-const y2 Int)
(declare-const x2 Int)
(assert (and (<= (- y1) 0) (<= (- y2) 0) (<= (- y3) 0) (<= (- x1) 0)
               (= (+ (- x1) y3 y2 uninterp) 0)
               (or (<= (+ y3 1) 0) (<= (+ (- y3) 1) 0))
               (or (and (or (<= (+ (- x2) y2 2) 0) (<= (+ x2 (- y2)) 0))
                          (= (+ (- phi_y1) y1) 0) (= (+ (- phi_y2) y2 1) 0))
                     (and (= (+ (- x2) y2 1) 0) (= (+ (- phi_y1) y1 1) 0)
                            (= (- phi_y2) 0))) (= (+ |y3'| (- y3) 1) 0)
               (= (+ |y2'| (- phi_y2)) 0) (= (+ |y1'| (- phi_y1)) 0)
               (= term_to_project_onto1 (+ |y1'| (- y1)))
               (= term_to_project_onto0 (+ |y2'| (- y2)))
               (= term_to_project_onto (+ |y3'| (- y3)))))
(check-sat)
